p cnf 13 65
-2 -7 -10 0
-6 -9 -10 -11 0
-2 -9 -11 0
-1 -6 -9 0
-6 -7 -9 0
-6 -7 -10 0
-2 -6 -7 0
-1 -6 -7 0
-4 -6 -7 0
-6 -7 -13 0
-6 -7 -8 0
-6 -7 -11 -12 0
-3 -6 -7 -11 0
-3 -5 -12 0
-3 -6 -7 -12 0
-2 -4 -12 0
-2 -6 -10 0
-3 -6 -10 -13 0
-6 -8 -10 -13 0
-4 -6 -9 -13 0
-4 -9 -10 -12 0
-4 -12 -13 0
-4 -7 -8 -10 0
-4 -8 -9 0
-3 -5 -10 -11 0
-1 -7 -9 -10 0
-3 -4 -10 -11 0
-1 -7 -9 -11 0
-2 -4 -7 0
-1 -2 -6 -11 0
-1 -4 -6 0
-2 -4 -8 0
-2 -7 -13 0
-4 -8 -13 0
-3 -7 -8 -11 0
-1 -4 -8 0
-3 -4 -5 0
-3 -4 -12 0
-5 -6 -10 -11 -12 0
-4 -6 -8 0
-4 -6 -10 -12 0
-4 -7 -10 -12 0
-1 -5 -7 -11 -12 0
-1 -4 -7 -12 0
-4 -5 -13 0
-1 -3 -4 -10 0
-1 -3 -4 -7 0
-3 -4 -11 -13 0
-1 -2 -9 0
-3 -4 -9 0
-1 -3 -4 -13 0
-2 -3 -4 -13 0
-3 -4 -6 -13 0
-1 -6 -8 0
-3 -10 -11 -12 0
-2 -10 -13 0
-2 -3 -11 0
-3 -11 -12 -13 0
-3 -9 -12 -13 0
-1 -3 -12 -13 0
-3 -7 -10 -12 0
-1 -3 -8 -12 0
-1 -2 -7 0
-2 -7 -12 0
-3 -7 -9 -12 0
